\ENCODING=ISO-8859-1
\Problem name: IloCplex

Minimize
 obj: x3 + x6 + x9 + x12 + x15 + x18 + x21 + x24 + x27 + x30 + x33 + x36 + x39
      + x42 + x45 + x48 + x51 + x54 + x57 + x60 + x63 + x66 + x69 + x72 + x75
      + x78 + x81 + x84 + x87 + x90 + x93 + x96 + x99 + x102 + x105 + x108
      + x111 + x114 + x117 + x120 + x123 + x126 + x129 + x132 + x135 + x138
      + x141 + x144 + x147 + x150
Subject To
 c1:   - x1 + x3  = 0
 c2:   - x4 + x6  = 0
 c3:   - x7 + x9  = 0
 c4:   - x10 + x12  = 0
 c5:   - x13 + x15  = 0
 c6:   - x16 + x18  = 0
 c7:   - x19 + x21  = 0
 c8:   - x22 + x24  = 0
 c9:   - x25 + x27  = 0
 c10:  - x28 + x30  = 0
 c11:  - x31 + x33  = 0
 c12:  - x34 + x36  = 0
 c13:  - x37 + x39  = 0
 c14:  - x40 + x42  = 0
 c15:  - x43 + x45  = 0
 c16:  - x46 + x48  = 0
 c17:  - x49 + x51  = 0
 c18:  - x52 + x54  = 0
 c19:  - x55 + x57  = 0
 c20:  - x58 + x60  = 0
 c21:  - x61 + x63  = 0
 c22:  - x64 + x66  = 0
 c23:  - x67 + x69  = 0
 c24:  - x70 + x72  = 0
 c25:  - x73 + x75  = 0
 c26:  - x76 + x78  = 0
 c27:  - x79 + x81  = 0
 c28:  - x82 + x84  = 0
 c29:  - x85 + x87  = 0
 c30:  - x88 + x90  = 0
 c31:  - x91 + x93  = 0
 c32:  - x94 + x96  = 0
 c33:  - x97 + x99  = 0
 c34:  - x100 + x102  = 0
 c35:  - x103 + x105  = 0
 c36:  - x106 + x108  = 0
 c37:  - x109 + x111  = 0
 c38:  - x112 + x114  = 0
 c39:  - x115 + x117  = 0
 c40:  - x118 + x120  = 0
 c41:  - x121 + x123  = 0
 c42:  - x124 + x126  = 0
 c43:  - x127 + x129  = 0
 c44:  - x130 + x132  = 0
 c45:  - x133 + x135  = 0
 c46:  - x136 + x138  = 0
 c47:  - x139 + x141  = 0
 c48:  - x142 + x144  = 0
 c49:  - x145 + x147  = 0
 c50:  - x148 + x150  = 0
 c51:  x2 - x151  = 3.70000004768372
 c52:  x5 + x151 - x152  = 34.2999992370605
 c53:  x8 + x152 - x153  = 91.1999969482422
 c54:  x11 + x153 - x154  = 28.7999992370605
 c55:  x14 + x154 - x155  = 12.1999998092651
 c56:  x17 + x155 - x156  = 13.8999996185303
 c57:  x20 + x156 - x157  = 57.5
 c58:  x23 + x157 - x158  = 77.3000030517578
 c59:  x26 + x158 - x159  = 95.5
 c60:  x29 + x159 - x160  = 50.2999992370605
 c61:  x32 + x160 - x161  = 19.5
 c62:  x35 + x161 - x162  = 33.9000015258789
 c63:  x38 + x162 - x163  = 97.9000015258789
 c64:  x41 + x163 - x164  = 15.3000001907349
 c65:  x44 + x164 - x165  = 39.9000015258789
 c66:  x47 + x165 - x166  = 29.8999996185303
 c67:  x50 + x166 - x167  = 10.5
 c68:  x53 + x167 - x168  = 37.9000015258789
 c69:  x56 + x168 - x169  = 85.8000030517578
 c70:  x59 + x169 - x170  = 36.5999984741211
 c71:  x62 + x170 - x171  = 69.1999969482422
 c72:  x65 + x171 - x172  = 67.1999969482422
 c73:  x68 + x172 - x173  = 14.5
 c74:  x71 + x173 - x174  = 27.6000003814697
 c75:  x74 + x174 - x175  = 45.2000007629395
 c76:  x77 + x175 - x176  = 79.9000015258789
 c77:  x80 + x176 - x177  = 59.4000015258789
 c78:  x83 + x177 - x178  = 4.09999990463257
 c79:  x86 + x178 - x179  = 33.2999992370605
 c80:  x89 + x179 - x180  = 55.5
 c81:  x92 + x180 - x181  = 74.9000015258789
 c82:  x95 + x181 - x182  = 26.6000003814697
 c83:  x98 + x182 - x183  = 89.6999969482422
 c84:  x101 + x183 - x184  = 20.6000003814697
 c85:  x104 + x184 - x185  = 53.0999984741211
 c86:  x107 + x185 - x186  = 83.5
 c87:  x110 + x186 - x187  = 25.2000007629395
 c88:  x113 + x187 - x188  = 91.6999969482422
 c89:  x116 + x188 - x189  = 40.2999992370605
 c90:  x119 + x189 - x190  = 98.1999969482422
 c91:  x122 + x190 - x191  = 78.3000030517578
 c92:  x125 + x191 - x192  = 11
 c93:  x128 + x192 - x193  = 72.8000030517578
 c94:  x131 + x193 - x194  = 10.1000003814697
 c95:  x134 + x194 - x195  = 52.4000015258789
 c96:  x137 + x195 - x196  = 97.5999984741211
 c97:  x140 + x196 - x197  = 47.4000015258789
 c98:  x143 + x197 - x198  = 90.4000015258789
 c99:  x146 + x198 - x199  = 25.2000007629395
 c100: x149 + x199 - x200  = 39.9000015258789
 c101: x200 >= 0
Bounds
      x1 Free
      x4 Free
      x7 Free
      x10 Free
      x13 Free
      x16 Free
      x19 Free
      x22 Free
      x25 Free
      x28 Free
      x31 Free
      x34 Free
      x37 Free
      x40 Free
      x43 Free
      x46 Free
      x49 Free
      x52 Free
      x55 Free
      x58 Free
      x61 Free
      x64 Free
      x67 Free
      x70 Free
      x73 Free
      x76 Free
      x79 Free
      x82 Free
      x85 Free
      x88 Free
      x91 Free
      x94 Free
      x97 Free
      x100 Free
      x103 Free
      x106 Free
      x109 Free
      x112 Free
      x115 Free
      x118 Free
      x121 Free
      x124 Free
      x127 Free
      x130 Free
      x133 Free
      x136 Free
      x139 Free
      x142 Free
      x145 Free
      x148 Free
 0 <= x151 <= 100
 0 <= x152 <= 100
 0 <= x153 <= 100
 0 <= x154 <= 100
 0 <= x155 <= 100
 0 <= x156 <= 100
 0 <= x157 <= 100
 0 <= x158 <= 100
 0 <= x159 <= 100
 0 <= x160 <= 100
 0 <= x161 <= 100
 0 <= x162 <= 100
 0 <= x163 <= 100
 0 <= x164 <= 100
 0 <= x165 <= 100
 0 <= x166 <= 100
 0 <= x167 <= 100
 0 <= x168 <= 100
 0 <= x169 <= 100
 0 <= x170 <= 100
 0 <= x171 <= 100
 0 <= x172 <= 100
 0 <= x173 <= 100
 0 <= x174 <= 100
 0 <= x175 <= 100
 0 <= x176 <= 100
 0 <= x177 <= 100
 0 <= x178 <= 100
 0 <= x179 <= 100
 0 <= x180 <= 100
 0 <= x181 <= 100
 0 <= x182 <= 100
 0 <= x183 <= 100
 0 <= x184 <= 100
 0 <= x185 <= 100
 0 <= x186 <= 100
 0 <= x187 <= 100
 0 <= x188 <= 100
 0 <= x189 <= 100
 0 <= x190 <= 100
 0 <= x191 <= 100
 0 <= x192 <= 100
 0 <= x193 <= 100
 0 <= x194 <= 100
 0 <= x195 <= 100
 0 <= x196 <= 100
 0 <= x197 <= 100
 0 <= x198 <= 100
 0 <= x199 <= 100
 0 <= x200 <= 100
Pwl
 p1:  x1 = x2 2.59999990463257 (10, 25.9999990463257) (20, 75)
      (30, 109.000000953674) (40, 155) (50, 177.999999523163)
      (60, 222.000000476837) (70, 233.000000715256) (80, 262.00000166893)
      (90, 289.000002145767) 2.40000009536743
 p2:  x4 = x5 2.59999990463257 (10, 25.9999990463257) (20, 75)
      (30, 109.000000953674) (40, 155) (50, 177.999999523163)
      (60, 222.000000476837) (70, 233.000000715256) (80, 262.00000166893)
      (90, 289.000002145767) 2.40000009536743
 p3:  x7 = x8 2.59999990463257 (10, 25.9999990463257) (20, 75)
      (30, 109.000000953674) (40, 155) (50, 177.999999523163)
      (60, 222.000000476837) (70, 233.000000715256) (80, 262.00000166893)
      (90, 289.000002145767) 2.40000009536743
 p4:  x10 = x11 2.59999990463257 (10, 25.9999990463257) (20, 75)
      (30, 109.000000953674) (40, 155) (50, 177.999999523163)
      (60, 222.000000476837) (70, 233.000000715256) (80, 262.00000166893)
      (90, 289.000002145767) 2.40000009536743
 p5:  x13 = x14 2.59999990463257 (10, 25.9999990463257) (20, 75)
      (30, 109.000000953674) (40, 155) (50, 177.999999523163)
      (60, 222.000000476837) (70, 233.000000715256) (80, 262.00000166893)
      (90, 289.000002145767) 2.40000009536743
 p6:  x16 = x17 2.59999990463257 (10, 25.9999990463257) (20, 75)
      (30, 109.000000953674) (40, 155) (50, 177.999999523163)
      (60, 222.000000476837) (70, 233.000000715256) (80, 262.00000166893)
      (90, 289.000002145767) 2.40000009536743
 p7:  x19 = x20 2.59999990463257 (10, 25.9999990463257) (20, 75)
      (30, 109.000000953674) (40, 155) (50, 177.999999523163)
      (60, 222.000000476837) (70, 233.000000715256) (80, 262.00000166893)
      (90, 289.000002145767) 2.40000009536743
 p8:  x22 = x23 2.59999990463257 (10, 25.9999990463257) (20, 75)
      (30, 109.000000953674) (40, 155) (50, 177.999999523163)
      (60, 222.000000476837) (70, 233.000000715256) (80, 262.00000166893)
      (90, 289.000002145767) 2.40000009536743
 p9:  x25 = x26 2.59999990463257 (10, 25.9999990463257) (20, 75)
      (30, 109.000000953674) (40, 155) (50, 177.999999523163)
      (60, 222.000000476837) (70, 233.000000715256) (80, 262.00000166893)
      (90, 289.000002145767) 2.40000009536743
 p10: x28 = x29 2.59999990463257 (10, 25.9999990463257) (20, 75)
      (30, 109.000000953674) (40, 155) (50, 177.999999523163)
      (60, 222.000000476837) (70, 233.000000715256) (80, 262.00000166893)
      (90, 289.000002145767) 2.40000009536743
 p11: x31 = x32 2.59999990463257 (10, 25.9999990463257) (20, 75)
      (30, 109.000000953674) (40, 155) (50, 177.999999523163)
      (60, 222.000000476837) (70, 233.000000715256) (80, 262.00000166893)
      (90, 289.000002145767) 2.40000009536743
 p12: x34 = x35 2.59999990463257 (10, 25.9999990463257) (20, 75)
      (30, 109.000000953674) (40, 155) (50, 177.999999523163)
      (60, 222.000000476837) (70, 233.000000715256) (80, 262.00000166893)
      (90, 289.000002145767) 2.40000009536743
 p13: x37 = x38 2.59999990463257 (10, 25.9999990463257) (20, 75)
      (30, 109.000000953674) (40, 155) (50, 177.999999523163)
      (60, 222.000000476837) (70, 233.000000715256) (80, 262.00000166893)
      (90, 289.000002145767) 2.40000009536743
 p14: x40 = x41 2.59999990463257 (10, 25.9999990463257) (20, 75)
      (30, 109.000000953674) (40, 155) (50, 177.999999523163)
      (60, 222.000000476837) (70, 233.000000715256) (80, 262.00000166893)
      (90, 289.000002145767) 2.40000009536743
 p15: x43 = x44 2.59999990463257 (10, 25.9999990463257) (20, 75)
      (30, 109.000000953674) (40, 155) (50, 177.999999523163)
      (60, 222.000000476837) (70, 233.000000715256) (80, 262.00000166893)
      (90, 289.000002145767) 2.40000009536743
 p16: x46 = x47 2.59999990463257 (10, 25.9999990463257) (20, 75)
      (30, 109.000000953674) (40, 155) (50, 177.999999523163)
      (60, 222.000000476837) (70, 233.000000715256) (80, 262.00000166893)
      (90, 289.000002145767) 2.40000009536743
 p17: x49 = x50 2.59999990463257 (10, 25.9999990463257) (20, 75)
      (30, 109.000000953674) (40, 155) (50, 177.999999523163)
      (60, 222.000000476837) (70, 233.000000715256) (80, 262.00000166893)
      (90, 289.000002145767) 2.40000009536743
 p18: x52 = x53 2.59999990463257 (10, 25.9999990463257) (20, 75)
      (30, 109.000000953674) (40, 155) (50, 177.999999523163)
      (60, 222.000000476837) (70, 233.000000715256) (80, 262.00000166893)
      (90, 289.000002145767) 2.40000009536743
 p19: x55 = x56 2.59999990463257 (10, 25.9999990463257) (20, 75)
      (30, 109.000000953674) (40, 155) (50, 177.999999523163)
      (60, 222.000000476837) (70, 233.000000715256) (80, 262.00000166893)
      (90, 289.000002145767) 2.40000009536743
 p20: x58 = x59 2.59999990463257 (10, 25.9999990463257) (20, 75)
      (30, 109.000000953674) (40, 155) (50, 177.999999523163)
      (60, 222.000000476837) (70, 233.000000715256) (80, 262.00000166893)
      (90, 289.000002145767) 2.40000009536743
 p21: x61 = x62 2.59999990463257 (10, 25.9999990463257) (20, 75)
      (30, 109.000000953674) (40, 155) (50, 177.999999523163)
      (60, 222.000000476837) (70, 233.000000715256) (80, 262.00000166893)
      (90, 289.000002145767) 2.40000009536743
 p22: x64 = x65 2.59999990463257 (10, 25.9999990463257) (20, 75)
      (30, 109.000000953674) (40, 155) (50, 177.999999523163)
      (60, 222.000000476837) (70, 233.000000715256) (80, 262.00000166893)
      (90, 289.000002145767) 2.40000009536743
 p23: x67 = x68 2.59999990463257 (10, 25.9999990463257) (20, 75)
      (30, 109.000000953674) (40, 155) (50, 177.999999523163)
      (60, 222.000000476837) (70, 233.000000715256) (80, 262.00000166893)
      (90, 289.000002145767) 2.40000009536743
 p24: x70 = x71 2.59999990463257 (10, 25.9999990463257) (20, 75)
      (30, 109.000000953674) (40, 155) (50, 177.999999523163)
      (60, 222.000000476837) (70, 233.000000715256) (80, 262.00000166893)
      (90, 289.000002145767) 2.40000009536743
 p25: x73 = x74 2.59999990463257 (10, 25.9999990463257) (20, 75)
      (30, 109.000000953674) (40, 155) (50, 177.999999523163)
      (60, 222.000000476837) (70, 233.000000715256) (80, 262.00000166893)
      (90, 289.000002145767) 2.40000009536743
 p26: x76 = x77 2.59999990463257 (10, 25.9999990463257) (20, 75)
      (30, 109.000000953674) (40, 155) (50, 177.999999523163)
      (60, 222.000000476837) (70, 233.000000715256) (80, 262.00000166893)
      (90, 289.000002145767) 2.40000009536743
 p27: x79 = x80 2.59999990463257 (10, 25.9999990463257) (20, 75)
      (30, 109.000000953674) (40, 155) (50, 177.999999523163)
      (60, 222.000000476837) (70, 233.000000715256) (80, 262.00000166893)
      (90, 289.000002145767) 2.40000009536743
 p28: x82 = x83 2.59999990463257 (10, 25.9999990463257) (20, 75)
      (30, 109.000000953674) (40, 155) (50, 177.999999523163)
      (60, 222.000000476837) (70, 233.000000715256) (80, 262.00000166893)
      (90, 289.000002145767) 2.40000009536743
 p29: x85 = x86 2.59999990463257 (10, 25.9999990463257) (20, 75)
      (30, 109.000000953674) (40, 155) (50, 177.999999523163)
      (60, 222.000000476837) (70, 233.000000715256) (80, 262.00000166893)
      (90, 289.000002145767) 2.40000009536743
 p30: x88 = x89 2.59999990463257 (10, 25.9999990463257) (20, 75)
      (30, 109.000000953674) (40, 155) (50, 177.999999523163)
      (60, 222.000000476837) (70, 233.000000715256) (80, 262.00000166893)
      (90, 289.000002145767) 2.40000009536743
 p31: x91 = x92 2.59999990463257 (10, 25.9999990463257) (20, 75)
      (30, 109.000000953674) (40, 155) (50, 177.999999523163)
      (60, 222.000000476837) (70, 233.000000715256) (80, 262.00000166893)
      (90, 289.000002145767) 2.40000009536743
 p32: x94 = x95 2.59999990463257 (10, 25.9999990463257) (20, 75)
      (30, 109.000000953674) (40, 155) (50, 177.999999523163)
      (60, 222.000000476837) (70, 233.000000715256) (80, 262.00000166893)
      (90, 289.000002145767) 2.40000009536743
 p33: x97 = x98 2.59999990463257 (10, 25.9999990463257) (20, 75)
      (30, 109.000000953674) (40, 155) (50, 177.999999523163)
      (60, 222.000000476837) (70, 233.000000715256) (80, 262.00000166893)
      (90, 289.000002145767) 2.40000009536743
 p34: x100 = x101 2.59999990463257 (10, 25.9999990463257) (20, 75)
      (30, 109.000000953674) (40, 155) (50, 177.999999523163)
      (60, 222.000000476837) (70, 233.000000715256) (80, 262.00000166893)
      (90, 289.000002145767) 2.40000009536743
 p35: x103 = x104 2.59999990463257 (10, 25.9999990463257) (20, 75)
      (30, 109.000000953674) (40, 155) (50, 177.999999523163)
      (60, 222.000000476837) (70, 233.000000715256) (80, 262.00000166893)
      (90, 289.000002145767) 2.40000009536743
 p36: x106 = x107 2.59999990463257 (10, 25.9999990463257) (20, 75)
      (30, 109.000000953674) (40, 155) (50, 177.999999523163)
      (60, 222.000000476837) (70, 233.000000715256) (80, 262.00000166893)
      (90, 289.000002145767) 2.40000009536743
 p37: x109 = x110 2.59999990463257 (10, 25.9999990463257) (20, 75)
      (30, 109.000000953674) (40, 155) (50, 177.999999523163)
      (60, 222.000000476837) (70, 233.000000715256) (80, 262.00000166893)
      (90, 289.000002145767) 2.40000009536743
 p38: x112 = x113 2.59999990463257 (10, 25.9999990463257) (20, 75)
      (30, 109.000000953674) (40, 155) (50, 177.999999523163)
      (60, 222.000000476837) (70, 233.000000715256) (80, 262.00000166893)
      (90, 289.000002145767) 2.40000009536743
 p39: x115 = x116 2.59999990463257 (10, 25.9999990463257) (20, 75)
      (30, 109.000000953674) (40, 155) (50, 177.999999523163)
      (60, 222.000000476837) (70, 233.000000715256) (80, 262.00000166893)
      (90, 289.000002145767) 2.40000009536743
 p40: x118 = x119 2.59999990463257 (10, 25.9999990463257) (20, 75)
      (30, 109.000000953674) (40, 155) (50, 177.999999523163)
      (60, 222.000000476837) (70, 233.000000715256) (80, 262.00000166893)
      (90, 289.000002145767) 2.40000009536743
 p41: x121 = x122 2.59999990463257 (10, 25.9999990463257) (20, 75)
      (30, 109.000000953674) (40, 155) (50, 177.999999523163)
      (60, 222.000000476837) (70, 233.000000715256) (80, 262.00000166893)
      (90, 289.000002145767) 2.40000009536743
 p42: x124 = x125 2.59999990463257 (10, 25.9999990463257) (20, 75)
      (30, 109.000000953674) (40, 155) (50, 177.999999523163)
      (60, 222.000000476837) (70, 233.000000715256) (80, 262.00000166893)
      (90, 289.000002145767) 2.40000009536743
 p43: x127 = x128 2.59999990463257 (10, 25.9999990463257) (20, 75)
      (30, 109.000000953674) (40, 155) (50, 177.999999523163)
      (60, 222.000000476837) (70, 233.000000715256) (80, 262.00000166893)
      (90, 289.000002145767) 2.40000009536743
 p44: x130 = x131 2.59999990463257 (10, 25.9999990463257) (20, 75)
      (30, 109.000000953674) (40, 155) (50, 177.999999523163)
      (60, 222.000000476837) (70, 233.000000715256) (80, 262.00000166893)
      (90, 289.000002145767) 2.40000009536743
 p45: x133 = x134 2.59999990463257 (10, 25.9999990463257) (20, 75)
      (30, 109.000000953674) (40, 155) (50, 177.999999523163)
      (60, 222.000000476837) (70, 233.000000715256) (80, 262.00000166893)
      (90, 289.000002145767) 2.40000009536743
 p46: x136 = x137 2.59999990463257 (10, 25.9999990463257) (20, 75)
      (30, 109.000000953674) (40, 155) (50, 177.999999523163)
      (60, 222.000000476837) (70, 233.000000715256) (80, 262.00000166893)
      (90, 289.000002145767) 2.40000009536743
 p47: x139 = x140 2.59999990463257 (10, 25.9999990463257) (20, 75)
      (30, 109.000000953674) (40, 155) (50, 177.999999523163)
      (60, 222.000000476837) (70, 233.000000715256) (80, 262.00000166893)
      (90, 289.000002145767) 2.40000009536743
 p48: x142 = x143 2.59999990463257 (10, 25.9999990463257) (20, 75)
      (30, 109.000000953674) (40, 155) (50, 177.999999523163)
      (60, 222.000000476837) (70, 233.000000715256) (80, 262.00000166893)
      (90, 289.000002145767) 2.40000009536743
 p49: x145 = x146 2.59999990463257 (10, 25.9999990463257) (20, 75)
      (30, 109.000000953674) (40, 155) (50, 177.999999523163)
      (60, 222.000000476837) (70, 233.000000715256) (80, 262.00000166893)
      (90, 289.000002145767) 2.40000009536743
 p50: x148 = x149 2.59999990463257 (10, 25.9999990463257) (20, 75)
      (30, 109.000000953674) (40, 155) (50, 177.999999523163)
      (60, 222.000000476837) (70, 233.000000715256) (80, 262.00000166893)
      (90, 289.000002145767) 2.40000009536743
End
